51
56
79
50
72
48
36
71
0
0
81
50
67
62
63
54
57
68
0
35
0
44
73
43
55
88
0
64
109
160
0
0
60
0
0
44
98
56
52
70
60
0
91
82
88
71
61
78
45
58
0
62
52
67
46
82
64
43
62
66
36
63
50
45
95
84
84
74
81
0
48
66
87
57
73
99
53
77
49
147
76
99
0
51
61
65
34
87
57
68
40
66
54
44
74
101
69
53
67
61
